
  12    4
  10   10   10   10

   0   0   0   0   0   4 2 3 6 11 
   7  10  10  10  10   3 10 9 4 
   3  10  10  10  10   1 5 
  10  10  10  10  10   1 8 
   6  10  10  10  10   1 7 
  10  10  10  10  10   1 7 
   6  10  10  10  10   1 12
  10  10  10  10  10   1 12
  10  10  10  10  10   1 12
   8  10  10  10  10   1 12
   5  10  10  10  10   1 12
   0   0   0   0   0   0 
